p cnf 270 2150
1 2 3 4 5 6 7 8 9 0
10 11 12 13 14 15 16 17 18 0
19 20 21 22 23 24 25 26 27 0
28 29 30 31 32 33 34 35 36 0
37 38 39 40 41 42 43 44 45 0
46 47 48 49 50 51 52 53 54 0
55 56 57 58 59 60 61 62 63 0
64 65 66 67 68 69 70 71 72 0
73 74 75 76 77 78 79 80 81 0
82 83 84 85 86 87 88 89 90 0
91 92 93 94 95 96 97 98 99 0
100 101 102 103 104 105 106 107 108 0
109 110 111 112 113 114 115 116 117 0
118 119 120 121 122 123 124 125 126 0
127 128 129 130 131 132 133 134 135 0
136 137 138 139 140 141 142 143 144 0
145 146 147 148 149 150 151 152 153 0
154 155 156 157 158 159 160 161 162 0
163 164 165 166 167 168 169 170 171 0
172 173 174 175 176 177 178 179 180 0
181 182 183 184 185 186 187 188 189 0
190 191 192 193 194 195 196 197 198 0
199 200 201 202 203 204 205 206 207 0
208 209 210 211 212 213 214 215 216 0
217 218 219 220 221 222 223 224 225 0
226 227 228 229 230 231 232 233 234 0
235 236 237 238 239 240 241 242 243 0
244 245 246 247 248 249 250 251 252 0
253 254 255 256 257 258 259 260 261 0
262 263 264 265 266 267 268 269 270 0
-1 -2 0
-1 -3 0
-1 -4 0
-1 -5 0
-1 -6 0
-1 -7 0
-1 -8 0
-1 -9 0
-2 -3 0
-2 -4 0
-2 -5 0
-2 -6 0
-2 -7 0
-2 -8 0
-2 -9 0
-3 -4 0
-3 -5 0
-3 -6 0
-3 -7 0
-3 -8 0
-3 -9 0
-4 -5 0
-4 -6 0
-4 -7 0
-4 -8 0
-4 -9 0
-5 -6 0
-5 -7 0
-5 -8 0
-5 -9 0
-6 -7 0
-6 -8 0
-6 -9 0
-7 -8 0
-7 -9 0
-8 -9 0
-10 -11 0
-10 -12 0
-10 -13 0
-10 -14 0
-10 -15 0
-10 -16 0
-10 -17 0
-10 -18 0
-11 -12 0
-11 -13 0
-11 -14 0
-11 -15 0
-11 -16 0
-11 -17 0
-11 -18 0
-12 -13 0
-12 -14 0
-12 -15 0
-12 -16 0
-12 -17 0
-12 -18 0
-13 -14 0
-13 -15 0
-13 -16 0
-13 -17 0
-13 -18 0
-14 -15 0
-14 -16 0
-14 -17 0
-14 -18 0
-15 -16 0
-15 -17 0
-15 -18 0
-16 -17 0
-16 -18 0
-17 -18 0
-19 -20 0
-19 -21 0
-19 -22 0
-19 -23 0
-19 -24 0
-19 -25 0
-19 -26 0
-19 -27 0
-20 -21 0
-20 -22 0
-20 -23 0
-20 -24 0
-20 -25 0
-20 -26 0
-20 -27 0
-21 -22 0
-21 -23 0
-21 -24 0
-21 -25 0
-21 -26 0
-21 -27 0
-22 -23 0
-22 -24 0
-22 -25 0
-22 -26 0
-22 -27 0
-23 -24 0
-23 -25 0
-23 -26 0
-23 -27 0
-24 -25 0
-24 -26 0
-24 -27 0
-25 -26 0
-25 -27 0
-26 -27 0
-28 -29 0
-28 -30 0
-28 -31 0
-28 -32 0
-28 -33 0
-28 -34 0
-28 -35 0
-28 -36 0
-29 -30 0
-29 -31 0
-29 -32 0
-29 -33 0
-29 -34 0
-29 -35 0
-29 -36 0
-30 -31 0
-30 -32 0
-30 -33 0
-30 -34 0
-30 -35 0
-30 -36 0
-31 -32 0
-31 -33 0
-31 -34 0
-31 -35 0
-31 -36 0
-32 -33 0
-32 -34 0
-32 -35 0
-32 -36 0
-33 -34 0
-33 -35 0
-33 -36 0
-34 -35 0
-34 -36 0
-35 -36 0
-37 -38 0
-37 -39 0
-37 -40 0
-37 -41 0
-37 -42 0
-37 -43 0
-37 -44 0
-37 -45 0
-38 -39 0
-38 -40 0
-38 -41 0
-38 -42 0
-38 -43 0
-38 -44 0
-38 -45 0
-39 -40 0
-39 -41 0
-39 -42 0
-39 -43 0
-39 -44 0
-39 -45 0
-40 -41 0
-40 -42 0
-40 -43 0
-40 -44 0
-40 -45 0
-41 -42 0
-41 -43 0
-41 -44 0
-41 -45 0
-42 -43 0
-42 -44 0
-42 -45 0
-43 -44 0
-43 -45 0
-44 -45 0
-46 -47 0
-46 -48 0
-46 -49 0
-46 -50 0
-46 -51 0
-46 -52 0
-46 -53 0
-46 -54 0
-47 -48 0
-47 -49 0
-47 -50 0
-47 -51 0
-47 -52 0
-47 -53 0
-47 -54 0
-48 -49 0
-48 -50 0
-48 -51 0
-48 -52 0
-48 -53 0
-48 -54 0
-49 -50 0
-49 -51 0
-49 -52 0
-49 -53 0
-49 -54 0
-50 -51 0
-50 -52 0
-50 -53 0
-50 -54 0
-51 -52 0
-51 -53 0
-51 -54 0
-52 -53 0
-52 -54 0
-53 -54 0
-55 -56 0
-55 -57 0
-55 -58 0
-55 -59 0
-55 -60 0
-55 -61 0
-55 -62 0
-55 -63 0
-56 -57 0
-56 -58 0
-56 -59 0
-56 -60 0
-56 -61 0
-56 -62 0
-56 -63 0
-57 -58 0
-57 -59 0
-57 -60 0
-57 -61 0
-57 -62 0
-57 -63 0
-58 -59 0
-58 -60 0
-58 -61 0
-58 -62 0
-58 -63 0
-59 -60 0
-59 -61 0
-59 -62 0
-59 -63 0
-60 -61 0
-60 -62 0
-60 -63 0
-61 -62 0
-61 -63 0
-62 -63 0
-64 -65 0
-64 -66 0
-64 -67 0
-64 -68 0
-64 -69 0
-64 -70 0
-64 -71 0
-64 -72 0
-65 -66 0
-65 -67 0
-65 -68 0
-65 -69 0
-65 -70 0
-65 -71 0
-65 -72 0
-66 -67 0
-66 -68 0
-66 -69 0
-66 -70 0
-66 -71 0
-66 -72 0
-67 -68 0
-67 -69 0
-67 -70 0
-67 -71 0
-67 -72 0
-68 -69 0
-68 -70 0
-68 -71 0
-68 -72 0
-69 -70 0
-69 -71 0
-69 -72 0
-70 -71 0
-70 -72 0
-71 -72 0
-73 -74 0
-73 -75 0
-73 -76 0
-73 -77 0
-73 -78 0
-73 -79 0
-73 -80 0
-73 -81 0
-74 -75 0
-74 -76 0
-74 -77 0
-74 -78 0
-74 -79 0
-74 -80 0
-74 -81 0
-75 -76 0
-75 -77 0
-75 -78 0
-75 -79 0
-75 -80 0
-75 -81 0
-76 -77 0
-76 -78 0
-76 -79 0
-76 -80 0
-76 -81 0
-77 -78 0
-77 -79 0
-77 -80 0
-77 -81 0
-78 -79 0
-78 -80 0
-78 -81 0
-79 -80 0
-79 -81 0
-80 -81 0
-82 -83 0
-82 -84 0
-82 -85 0
-82 -86 0
-82 -87 0
-82 -88 0
-82 -89 0
-82 -90 0
-83 -84 0
-83 -85 0
-83 -86 0
-83 -87 0
-83 -88 0
-83 -89 0
-83 -90 0
-84 -85 0
-84 -86 0
-84 -87 0
-84 -88 0
-84 -89 0
-84 -90 0
-85 -86 0
-85 -87 0
-85 -88 0
-85 -89 0
-85 -90 0
-86 -87 0
-86 -88 0
-86 -89 0
-86 -90 0
-87 -88 0
-87 -89 0
-87 -90 0
-88 -89 0
-88 -90 0
-89 -90 0
-91 -92 0
-91 -93 0
-91 -94 0
-91 -95 0
-91 -96 0
-91 -97 0
-91 -98 0
-91 -99 0
-92 -93 0
-92 -94 0
-92 -95 0
-92 -96 0
-92 -97 0
-92 -98 0
-92 -99 0
-93 -94 0
-93 -95 0
-93 -96 0
-93 -97 0
-93 -98 0
-93 -99 0
-94 -95 0
-94 -96 0
-94 -97 0
-94 -98 0
-94 -99 0
-95 -96 0
-95 -97 0
-95 -98 0
-95 -99 0
-96 -97 0
-96 -98 0
-96 -99 0
-97 -98 0
-97 -99 0
-98 -99 0
-100 -101 0
-100 -102 0
-100 -103 0
-100 -104 0
-100 -105 0
-100 -106 0
-100 -107 0
-100 -108 0
-101 -102 0
-101 -103 0
-101 -104 0
-101 -105 0
-101 -106 0
-101 -107 0
-101 -108 0
-102 -103 0
-102 -104 0
-102 -105 0
-102 -106 0
-102 -107 0
-102 -108 0
-103 -104 0
-103 -105 0
-103 -106 0
-103 -107 0
-103 -108 0
-104 -105 0
-104 -106 0
-104 -107 0
-104 -108 0
-105 -106 0
-105 -107 0
-105 -108 0
-106 -107 0
-106 -108 0
-107 -108 0
-109 -110 0
-109 -111 0
-109 -112 0
-109 -113 0
-109 -114 0
-109 -115 0
-109 -116 0
-109 -117 0
-110 -111 0
-110 -112 0
-110 -113 0
-110 -114 0
-110 -115 0
-110 -116 0
-110 -117 0
-111 -112 0
-111 -113 0
-111 -114 0
-111 -115 0
-111 -116 0
-111 -117 0
-112 -113 0
-112 -114 0
-112 -115 0
-112 -116 0
-112 -117 0
-113 -114 0
-113 -115 0
-113 -116 0
-113 -117 0
-114 -115 0
-114 -116 0
-114 -117 0
-115 -116 0
-115 -117 0
-116 -117 0
-118 -119 0
-118 -120 0
-118 -121 0
-118 -122 0
-118 -123 0
-118 -124 0
-118 -125 0
-118 -126 0
-119 -120 0
-119 -121 0
-119 -122 0
-119 -123 0
-119 -124 0
-119 -125 0
-119 -126 0
-120 -121 0
-120 -122 0
-120 -123 0
-120 -124 0
-120 -125 0
-120 -126 0
-121 -122 0
-121 -123 0
-121 -124 0
-121 -125 0
-121 -126 0
-122 -123 0
-122 -124 0
-122 -125 0
-122 -126 0
-123 -124 0
-123 -125 0
-123 -126 0
-124 -125 0
-124 -126 0
-125 -126 0
-127 -128 0
-127 -129 0
-127 -130 0
-127 -131 0
-127 -132 0
-127 -133 0
-127 -134 0
-127 -135 0
-128 -129 0
-128 -130 0
-128 -131 0
-128 -132 0
-128 -133 0
-128 -134 0
-128 -135 0
-129 -130 0
-129 -131 0
-129 -132 0
-129 -133 0
-129 -134 0
-129 -135 0
-130 -131 0
-130 -132 0
-130 -133 0
-130 -134 0
-130 -135 0
-131 -132 0
-131 -133 0
-131 -134 0
-131 -135 0
-132 -133 0
-132 -134 0
-132 -135 0
-133 -134 0
-133 -135 0
-134 -135 0
-136 -137 0
-136 -138 0
-136 -139 0
-136 -140 0
-136 -141 0
-136 -142 0
-136 -143 0
-136 -144 0
-137 -138 0
-137 -139 0
-137 -140 0
-137 -141 0
-137 -142 0
-137 -143 0
-137 -144 0
-138 -139 0
-138 -140 0
-138 -141 0
-138 -142 0
-138 -143 0
-138 -144 0
-139 -140 0
-139 -141 0
-139 -142 0
-139 -143 0
-139 -144 0
-140 -141 0
-140 -142 0
-140 -143 0
-140 -144 0
-141 -142 0
-141 -143 0
-141 -144 0
-142 -143 0
-142 -144 0
-143 -144 0
-145 -146 0
-145 -147 0
-145 -148 0
-145 -149 0
-145 -150 0
-145 -151 0
-145 -152 0
-145 -153 0
-146 -147 0
-146 -148 0
-146 -149 0
-146 -150 0
-146 -151 0
-146 -152 0
-146 -153 0
-147 -148 0
-147 -149 0
-147 -150 0
-147 -151 0
-147 -152 0
-147 -153 0
-148 -149 0
-148 -150 0
-148 -151 0
-148 -152 0
-148 -153 0
-149 -150 0
-149 -151 0
-149 -152 0
-149 -153 0
-150 -151 0
-150 -152 0
-150 -153 0
-151 -152 0
-151 -153 0
-152 -153 0
-154 -155 0
-154 -156 0
-154 -157 0
-154 -158 0
-154 -159 0
-154 -160 0
-154 -161 0
-154 -162 0
-155 -156 0
-155 -157 0
-155 -158 0
-155 -159 0
-155 -160 0
-155 -161 0
-155 -162 0
-156 -157 0
-156 -158 0
-156 -159 0
-156 -160 0
-156 -161 0
-156 -162 0
-157 -158 0
-157 -159 0
-157 -160 0
-157 -161 0
-157 -162 0
-158 -159 0
-158 -160 0
-158 -161 0
-158 -162 0
-159 -160 0
-159 -161 0
-159 -162 0
-160 -161 0
-160 -162 0
-161 -162 0
-163 -164 0
-163 -165 0
-163 -166 0
-163 -167 0
-163 -168 0
-163 -169 0
-163 -170 0
-163 -171 0
-164 -165 0
-164 -166 0
-164 -167 0
-164 -168 0
-164 -169 0
-164 -170 0
-164 -171 0
-165 -166 0
-165 -167 0
-165 -168 0
-165 -169 0
-165 -170 0
-165 -171 0
-166 -167 0
-166 -168 0
-166 -169 0
-166 -170 0
-166 -171 0
-167 -168 0
-167 -169 0
-167 -170 0
-167 -171 0
-168 -169 0
-168 -170 0
-168 -171 0
-169 -170 0
-169 -171 0
-170 -171 0
-172 -173 0
-172 -174 0
-172 -175 0
-172 -176 0
-172 -177 0
-172 -178 0
-172 -179 0
-172 -180 0
-173 -174 0
-173 -175 0
-173 -176 0
-173 -177 0
-173 -178 0
-173 -179 0
-173 -180 0
-174 -175 0
-174 -176 0
-174 -177 0
-174 -178 0
-174 -179 0
-174 -180 0
-175 -176 0
-175 -177 0
-175 -178 0
-175 -179 0
-175 -180 0
-176 -177 0
-176 -178 0
-176 -179 0
-176 -180 0
-177 -178 0
-177 -179 0
-177 -180 0
-178 -179 0
-178 -180 0
-179 -180 0
-181 -182 0
-181 -183 0
-181 -184 0
-181 -185 0
-181 -186 0
-181 -187 0
-181 -188 0
-181 -189 0
-182 -183 0
-182 -184 0
-182 -185 0
-182 -186 0
-182 -187 0
-182 -188 0
-182 -189 0
-183 -184 0
-183 -185 0
-183 -186 0
-183 -187 0
-183 -188 0
-183 -189 0
-184 -185 0
-184 -186 0
-184 -187 0
-184 -188 0
-184 -189 0
-185 -186 0
-185 -187 0
-185 -188 0
-185 -189 0
-186 -187 0
-186 -188 0
-186 -189 0
-187 -188 0
-187 -189 0
-188 -189 0
-190 -191 0
-190 -192 0
-190 -193 0
-190 -194 0
-190 -195 0
-190 -196 0
-190 -197 0
-190 -198 0
-191 -192 0
-191 -193 0
-191 -194 0
-191 -195 0
-191 -196 0
-191 -197 0
-191 -198 0
-192 -193 0
-192 -194 0
-192 -195 0
-192 -196 0
-192 -197 0
-192 -198 0
-193 -194 0
-193 -195 0
-193 -196 0
-193 -197 0
-193 -198 0
-194 -195 0
-194 -196 0
-194 -197 0
-194 -198 0
-195 -196 0
-195 -197 0
-195 -198 0
-196 -197 0
-196 -198 0
-197 -198 0
-199 -200 0
-199 -201 0
-199 -202 0
-199 -203 0
-199 -204 0
-199 -205 0
-199 -206 0
-199 -207 0
-200 -201 0
-200 -202 0
-200 -203 0
-200 -204 0
-200 -205 0
-200 -206 0
-200 -207 0
-201 -202 0
-201 -203 0
-201 -204 0
-201 -205 0
-201 -206 0
-201 -207 0
-202 -203 0
-202 -204 0
-202 -205 0
-202 -206 0
-202 -207 0
-203 -204 0
-203 -205 0
-203 -206 0
-203 -207 0
-204 -205 0
-204 -206 0
-204 -207 0
-205 -206 0
-205 -207 0
-206 -207 0
-208 -209 0
-208 -210 0
-208 -211 0
-208 -212 0
-208 -213 0
-208 -214 0
-208 -215 0
-208 -216 0
-209 -210 0
-209 -211 0
-209 -212 0
-209 -213 0
-209 -214 0
-209 -215 0
-209 -216 0
-210 -211 0
-210 -212 0
-210 -213 0
-210 -214 0
-210 -215 0
-210 -216 0
-211 -212 0
-211 -213 0
-211 -214 0
-211 -215 0
-211 -216 0
-212 -213 0
-212 -214 0
-212 -215 0
-212 -216 0
-213 -214 0
-213 -215 0
-213 -216 0
-214 -215 0
-214 -216 0
-215 -216 0
-217 -218 0
-217 -219 0
-217 -220 0
-217 -221 0
-217 -222 0
-217 -223 0
-217 -224 0
-217 -225 0
-218 -219 0
-218 -220 0
-218 -221 0
-218 -222 0
-218 -223 0
-218 -224 0
-218 -225 0
-219 -220 0
-219 -221 0
-219 -222 0
-219 -223 0
-219 -224 0
-219 -225 0
-220 -221 0
-220 -222 0
-220 -223 0
-220 -224 0
-220 -225 0
-221 -222 0
-221 -223 0
-221 -224 0
-221 -225 0
-222 -223 0
-222 -224 0
-222 -225 0
-223 -224 0
-223 -225 0
-224 -225 0
-226 -227 0
-226 -228 0
-226 -229 0
-226 -230 0
-226 -231 0
-226 -232 0
-226 -233 0
-226 -234 0
-227 -228 0
-227 -229 0
-227 -230 0
-227 -231 0
-227 -232 0
-227 -233 0
-227 -234 0
-228 -229 0
-228 -230 0
-228 -231 0
-228 -232 0
-228 -233 0
-228 -234 0
-229 -230 0
-229 -231 0
-229 -232 0
-229 -233 0
-229 -234 0
-230 -231 0
-230 -232 0
-230 -233 0
-230 -234 0
-231 -232 0
-231 -233 0
-231 -234 0
-232 -233 0
-232 -234 0
-233 -234 0
-235 -236 0
-235 -237 0
-235 -238 0
-235 -239 0
-235 -240 0
-235 -241 0
-235 -242 0
-235 -243 0
-236 -237 0
-236 -238 0
-236 -239 0
-236 -240 0
-236 -241 0
-236 -242 0
-236 -243 0
-237 -238 0
-237 -239 0
-237 -240 0
-237 -241 0
-237 -242 0
-237 -243 0
-238 -239 0
-238 -240 0
-238 -241 0
-238 -242 0
-238 -243 0
-239 -240 0
-239 -241 0
-239 -242 0
-239 -243 0
-240 -241 0
-240 -242 0
-240 -243 0
-241 -242 0
-241 -243 0
-242 -243 0
-244 -245 0
-244 -246 0
-244 -247 0
-244 -248 0
-244 -249 0
-244 -250 0
-244 -251 0
-244 -252 0
-245 -246 0
-245 -247 0
-245 -248 0
-245 -249 0
-245 -250 0
-245 -251 0
-245 -252 0
-246 -247 0
-246 -248 0
-246 -249 0
-246 -250 0
-246 -251 0
-246 -252 0
-247 -248 0
-247 -249 0
-247 -250 0
-247 -251 0
-247 -252 0
-248 -249 0
-248 -250 0
-248 -251 0
-248 -252 0
-249 -250 0
-249 -251 0
-249 -252 0
-250 -251 0
-250 -252 0
-251 -252 0
-253 -254 0
-253 -255 0
-253 -256 0
-253 -257 0
-253 -258 0
-253 -259 0
-253 -260 0
-253 -261 0
-254 -255 0
-254 -256 0
-254 -257 0
-254 -258 0
-254 -259 0
-254 -260 0
-254 -261 0
-255 -256 0
-255 -257 0
-255 -258 0
-255 -259 0
-255 -260 0
-255 -261 0
-256 -257 0
-256 -258 0
-256 -259 0
-256 -260 0
-256 -261 0
-257 -258 0
-257 -259 0
-257 -260 0
-257 -261 0
-258 -259 0
-258 -260 0
-258 -261 0
-259 -260 0
-259 -261 0
-260 -261 0
-262 -263 0
-262 -264 0
-262 -265 0
-262 -266 0
-262 -267 0
-262 -268 0
-262 -269 0
-262 -270 0
-263 -264 0
-263 -265 0
-263 -266 0
-263 -267 0
-263 -268 0
-263 -269 0
-263 -270 0
-264 -265 0
-264 -266 0
-264 -267 0
-264 -268 0
-264 -269 0
-264 -270 0
-265 -266 0
-265 -267 0
-265 -268 0
-265 -269 0
-265 -270 0
-266 -267 0
-266 -268 0
-266 -269 0
-266 -270 0
-267 -268 0
-267 -269 0
-267 -270 0
-268 -269 0
-268 -270 0
-269 -270 0
-2 -59 0
-2 -62 0
-8 -56 0
-5 -60 0
-1 -61 0
-9 -63 0
-3 -63 0
-9 -55 0
-1 -68 0
-7 -70 0
-7 -67 0
-7 -66 0
-3 -68 0
-8 -72 0
-7 -71 0
-6 -66 0
-1 -86 0
-8 -82 0
-3 -84 0
-9 -88 0
-8 -83 0
-5 -82 0
-1 -88 0
-3 -90 0
-2 -93 0
-6 -94 0
-7 -98 0
-9 -96 0
-1 -91 0
-6 -92 0
-5 -93 0
-9 -99 0
-1 -147 0
-2 -152 0
-9 -147 0
-2 -145 0
-5 -148 0
-3 -145 0
-1 -146 0
-1 -152 0
-8 -157 0
-5 -158 0
-1 -158 0
-3 -156 0
-7 -156 0
-7 -159 0
-2 -154 0
-2 -157 0
-6 -184 0
-2 -186 0
-2 -189 0
-3 -184 0
-1 -185 0
-9 -182 0
-6 -183 0
-3 -189 0
-8 -213 0
-6 -210 0
-1 -215 0
-3 -210 0
-1 -211 0
-8 -216 0
-2 -215 0
-9 -215 0
-3 -229 0
-6 -233 0
-7 -234 0
-8 -232 0
-1 -232 0
-1 -231 0
-6 -234 0
-8 -231 0
-9 -255 0
-8 -259 0
-8 -260 0
-5 -260 0
-1 -260 0
-2 -259 0
-5 -255 0
-4 -260 0
-10 -30 0
-15 -35 0
-15 -30 0
-18 -34 0
-14 -30 0
-13 -28 0
-12 -30 0
-18 -33 0
-10 -58 0
-13 -58 0
-10 -56 0
-12 -55 0
-12 -60 0
-17 -60 0
-14 -60 0
-14 -59 0
-11 -81 0
-18 -77 0
-13 -75 0
-15 -77 0
-16 -78 0
-13 -73 0
-13 -80 0
-14 -78 0
-17 -119 0
-14 -126 0
-14 -119 0
-15 -121 0
-10 -123 0
-17 -123 0
-13 -124 0
-16 -122 0
-15 -133 0
-13 -131 0
-16 -135 0
-15 -132 0
-18 -135 0
-11 -135 0
-12 -129 0
-10 -130 0
-17 -174 0
-16 -174 0
-17 -175 0
-13 -179 0
-15 -180 0
-14 -177 0
-18 -178 0
-17 -180 0
-15 -201 0
-16 -202 0
-13 -202 0
-10 -205 0
-11 -201 0
-16 -207 0
-14 -200 0
-18 -200 0
-10 -214 0
-16 -216 0
-13 -208 0
-13 -213 0
-11 -214 0
-17 -211 0
-18 -216 0
-10 -215 0
-14 -240 0
-18 -242 0
-16 -238 0
-11 -242 0
-12 -241 0
-18 -243 0
-18 -239 0
-12 -242 0
-24 -34 0
-20 -28 0
-22 -31 0
-27 -33 0
-23 -34 0
-25 -30 0
-21 -33 0
-24 -31 0
-23 -41 0
-26 -44 0
-20 -42 0
-25 -43 0
-23 -40 0
-24 -40 0
-27 -43 0
-23 -45 0
-27 -53 0
-19 -50 0
-23 -47 0
-25 -54 0
-22 -48 0
-24 -47 0
-22 -50 0
-25 -52 0
-24 -90 0
-25 -87 0
-23 -88 0
-19 -87 0
-20 -85 0
-19 -83 0
-25 -84 0
-24 -84 0
-19 -109 0
-24 -110 0
-27 -110 0
-25 -111 0
-20 -113 0
-20 -117 0
-19 -116 0
-24 -113 0
-20 -137 0
-27 -137 0
-25 -139 0
-23 -139 0
-21 -141 0
-22 -137 0
-19 -142 0
-19 -139 0
-26 -162 0
-27 -155 0
-21 -159 0
-23 -158 0
-20 -160 0
-23 -155 0
-23 -160 0
-22 -160 0
-26 -167 0
-19 -164 0
-27 -168 0
-25 -167 0
-25 -168 0
-26 -166 0
-23 -163 0
-20 -169 0
-22 -172 0
-27 -176 0
-23 -177 0
-27 -172 0
-26 -178 0
-21 -178 0
-27 -179 0
-23 -175 0
-25 -196 0
-23 -191 0
-24 -198 0
-24 -190 0
-20 -196 0
-22 -195 0
-20 -194 0
-25 -191 0
-21 -248 0
-20 -251 0
-26 -246 0
-27 -251 0
-23 -247 0
-24 -244 0
-25 -251 0
-23 -244 0
-34 -81 0
-31 -76 0
-29 -79 0
-32 -75 0
-29 -75 0
-28 -78 0
-31 -81 0
-36 -77 0
-31 -100 0
-30 -108 0
-29 -106 0
-29 -101 0
-33 -103 0
-30 -100 0
-35 -105 0
-28 -103 0
-34 -153 0
-33 -149 0
-31 -145 0
-30 -152 0
-33 -153 0
-31 -151 0
-34 -149 0
-30 -147 0
-33 -201 0
-30 -200 0
-33 -203 0
-29 -200 0
-35 -203 0
-35 -206 0
-36 -202 0
-32 -201 0
-30 -218 0
-34 -219 0
-33 -218 0
-35 -220 0
-31 -220 0
-32 -225 0
-28 -223 0
-31 -223 0
-34 -249 0
-33 -248 0
-31 -247 0
-35 -244 0
-29 -246 0
-30 -246 0
-36 -249 0
-31 -252 0
-39 -48 0
-43 -50 0
-41 -51 0
-40 -51 0
-37 -48 0
-45 -46 0
-45 -47 0
-38 -51 0
-37 -63 0
-37 -58 0
-43 -60 0
-38 -61 0
-43 -58 0
-37 -61 0
-39 -57 0
-45 -62 0
-45 -85 0
-45 -90 0
-43 -83 0
-42 -89 0
-37 -83 0
-43 -87 0
-44 -83 0
-42 -85 0
-45 -148 0
-45 -149 0
-38 -145 0
-43 -149 0
-37 -153 0
-42 -148 0
-42 -149 0
-44 -151 0
-40 -165 0
-45 -165 0
-40 -164 0
-41 -168 0
-37 -170 0
-38 -163 0
-44 -164 0
-38 -171 0
-43 -239 0
-38 -243 0
-44 -242 0
-45 -236 0
-41 -235 0
-42 -235 0
-44 -236 0
-43 -241 0
-41 -256 0
-42 -256 0
-41 -259 0
-38 -259 0
-44 -255 0
-38 -253 0
-44 -254 0
-39 -254 0
-38 -262 0
-40 -268 0
-38 -265 0
-43 -267 0
-38 -269 0
-42 -270 0
-41 -266 0
-39 -270 0
-49 -60 0
-50 -59 0
-47 -57 0
-46 -62 0
-47 -61 0
-48 -55 0
-54 -61 0
-50 -55 0
-48 -72 0
-50 -67 0
-46 -71 0
-48 -71 0
-48 -66 0
-50 -70 0
-47 -68 0
-48 -70 0
-50 -130 0
-50 -127 0
-49 -130 0
-48 -131 0
-47 -132 0
-54 -132 0
-50 -135 0
-52 -134 0
-51 -154 0
-52 -162 0
-52 -159 0
-53 -162 0
-48 -158 0
-52 -154 0
-47 -162 0
-46 -159 0
-52 -193 0
-54 -198 0
-53 -198 0
-53 -193 0
-49 -190 0
-50 -196 0
-52 -197 0
-52 -194 0
-61 -67 0
-59 -68 0
-59 -65 0
-59 -72 0
-56 -67 0
-60 -69 0
-61 -70 0
-62 -67 0
-61 -104 0
-55 -107 0
-59 -105 0
-62 -100 0
-58 -107 0
-56 -101 0
-60 -101 0
-60 -102 0
-61 -114 0
-56 -116 0
-61 -110 0
-57 -116 0
-59 -110 0
-60 -111 0
-57 -113 0
-63 -114 0
-63 -139 0
-57 -144 0
-55 -142 0
-55 -138 0
-60 -138 0
-56 -143 0
-61 -139 0
-58 -137 0
-56 -261 0
-57 -261 0
-63 -260 0
-55 -260 0
-55 -253 0
-59 -259 0
-59 -255 0
-57 -256 0
-70 -96 0
-71 -96 0
-72 -93 0
-72 -97 0
-65 -92 0
-69 -99 0
-70 -99 0
-71 -95 0
-69 -119 0
-67 -118 0
-66 -118 0
-69 -123 0
-68 -119 0
-64 -121 0
-68 -126 0
-69 -126 0
-71 -145 0
-68 -147 0
-64 -152 0
-65 -152 0
-69 -153 0
-66 -148 0
-69 -152 0
-72 -145 0
-72 -210 0
-64 -211 0
-72 -211 0
-64 -208 0
-72 -215 0
-68 -209 0
-72 -213 0
-64 -216 0
-69 -235 0
-68 -236 0
-66 -241 0
-71 -239 0
-65 -240 0
-67 -235 0
-68 -237 0
-70 -242 0
-80 -94 0
-73 -92 0
-74 -95 0
-76 -93 0
-80 -91 0
-79 -99 0
-74 -97 0
-76 -94 0
-78 -123 0
-73 -122 0
-75 -119 0
-79 -124 0
-75 -123 0
-74 -125 0
-78 -125 0
-75 -125 0
-74 -136 0
-75 -138 0
-77 -141 0
-76 -143 0
-75 -137 0
-81 -142 0
-73 -137 0
-79 -139 0
-73 -149 0
-81 -149 0
-80 -148 0
-78 -152 0
-81 -152 0
-76 -145 0
-80 -150 0
-80 -151 0
-78 -179 0
-74 -179 0
-77 -174 0
-74 -176 0
-73 -177 0
-80 -177 0
-80 -172 0
-75 -174 0
-79 -194 0
-77 -194 0
-75 -192 0
-73 -192 0
-76 -192 0
-76 -196 0
-74 -198 0
-81 -193 0
-81 -206 0
-81 -204 0
-76 -203 0
-73 -205 0
-81 -202 0
-73 -207 0
-75 -207 0
-79 -202 0
-76 -254 0
-73 -259 0
-73 -258 0
-74 -260 0
-75 -256 0
-75 -258 0
-77 -258 0
-74 -253 0
-80 -263 0
-78 -263 0
-81 -262 0
-73 -264 0
-78 -270 0
-74 -268 0
-76 -263 0
-73 -262 0
-84 -117 0
-88 -115 0
-85 -114 0
-90 -112 0
-82 -110 0
-86 -113 0
-84 -111 0
-88 -109 0
-82 -119 0
-83 -125 0
-86 -124 0
-86 -120 0
-82 -122 0
-89 -125 0
-88 -121 0
-86 -121 0
-87 -170 0
-86 -166 0
-84 -169 0
-90 -163 0
-86 -171 0
-87 -169 0
-83 -169 0
-82 -163 0
-84 -174 0
-88 -178 0
-83 -173 0
-83 -172 0
-84 -172 0
-88 -180 0
-90 -173 0
-87 -180 0
-90 -215 0
-85 -213 0
-87 -210 0
-82 -212 0
-89 -213 0
-87 -208 0
-85 -210 0
-82 -216 0
-90 -227 0
-82 -227 0
-89 -231 0
-89 -230 0
-86 -228 0
-83 -230 0
-84 -230 0
-85 -233 0
-83 -252 0
-87 -251 0
-82 -249 0
-84 -248 0
-90 -246 0
-86 -245 0
-83 -249 0
-82 -246 0
-86 -255 0
-84 -260 0
-86 -257 0
-90 -255 0
-86 -259 0
-89 -254 0
-84 -259 0
-83 -257 0
-92 -103 0
-94 -100 0
-94 -107 0
-96 -107 0
-92 -102 0
-98 -106 0
-97 -108 0
-92 -105 0
-92 -136 0
-94 -142 0
-95 -139 0
-93 -137 0
-94 -143 0
-91 -141 0
-97 -143 0
-99 -139 0
-92 -151 0
-91 -147 0
-91 -149 0
-96 -149 0
-98 -153 0
-99 -149 0
-93 -145 0
-93 -147 0
-96 -172 0
-94 -175 0
-98 -178 0
-95 -175 0
-97 -175 0
-99 -174 0
-93 -178 0
-99 -180 0
-94 -189 0
-94 -187 0
-91 -184 0
-93 -189 0
-92 -184 0
-93 -181 0
-97 -186 0
-95 -187 0
-99 -198 0
-98 -196 0
-93 -195 0
-95 -194 0
-96 -196 0
-91 -195 0
-94 -198 0
-92 -198 0
-91 -217 0
-91 -223 0
-94 -220 0
-95 -225 0
-95 -224 0
-95 -222 0
-93 -223 0
-94 -223 0
-91 -229 0
-99 -230 0
-91 -231 0
-93 -231 0
-97 -230 0
-93 -232 0
-91 -232 0
-97 -226 0
-97 -250 0
-98 -251 0
-96 -246 0
-98 -244 0
-91 -249 0
-94 -248 0
-95 -244 0
-95 -249 0
-108 -165 0
-107 -164 0
-104 -163 0
-105 -163 0
-103 -166 0
-107 -163 0
-101 -163 0
-105 -171 0
-115 -145 0
-109 -146 0
-113 -147 0
-116 -147 0
-111 -151 0
-111 -145 0
-111 -153 0
-117 -147 0
-117 -195 0
-112 -194 0
-117 -194 0
-109 -195 0
-109 -197 0
-116 -190 0
-116 -191 0
-112 -198 0
-117 -200 0
-114 -199 0
-114 -202 0
-112 -204 0
-113 -203 0
-111 -206 0
-114 -203 0
-117 -205 0
-110 -246 0
-112 -247 0
-111 -245 0
-111 -252 0
-113 -244 0
-117 -250 0
-114 -249 0
-111 -244 0
-121 -129 0
-125 -129 0
-119 -129 0
-122 -130 0
-123 -127 0
-120 -131 0
-120 -132 0
-123 -129 0
-121 -175 0
-126 -172 0
-122 -172 0
-120 -180 0
-124 -176 0
-119 -177 0
-122 -174 0
-121 -172 0
-120 -185 0
-125 -185 0
-121 -188 0
-126 -186 0
-124 -185 0
-120 -183 0
-121 -183 0
-125 -187 0
-121 -230 0
-119 -226 0
-118 -232 0
-126 -233 0
-118 -234 0
-122 -231 0
-123 -228 0
-122 -228 0
-123 -237 0
-125 -239 0
-119 -240 0
-125 -238 0
-120 -237 0
-123 -243 0
-119 -238 0
-124 -239 0
-134 -149 0
-127 -147 0
-128 -148 0
-131 -152 0
-134 -148 0
-133 -153 0
-134 -150 0
-132 -147 0
-129 -260 0
-135 -255 0
-135 -258 0
-134 -258 0
-128 -261 0
-131 -254 0
-128 -253 0
-131 -255 0
-135 -264 0
-132 -267 0
-134 -266 0
-133 -267 0
-129 -268 0
-134 -265 0
-135 -262 0
-134 -269 0
-142 -186 0
-143 -187 0
-141 -185 0
-136 -188 0
-139 -183 0
-136 -189 0
-140 -181 0
-142 -188 0
-136 -222 0
-142 -222 0
-139 -225 0
-139 -220 0
-141 -220 0
-136 -221 0
-143 -221 0
-137 -220 0
-140 -227 0
-141 -230 0
-137 -231 0
-140 -229 0
-136 -229 0
-142 -226 0
-137 -232 0
-140 -228 0
-137 -242 0
-138 -235 0
-136 -237 0
-136 -242 0
-142 -241 0
-138 -238 0
-137 -240 0
-142 -237 0
-138 -253 0
-136 -254 0
-138 -256 0
-141 -254 0
-138 -254 0
-144 -256 0
-143 -257 0
-143 -259 0
-149 -171 0
-148 -168 0
-153 -171 0
-150 -165 0
-153 -163 0
-146 -166 0
-150 -168 0
-152 -166 0
-151 -188 0
-151 -187 0
-147 -182 0
-153 -187 0
-147 -185 0
-152 -188 0
-146 -181 0
-152 -184 0
-146 -239 0
-146 -240 0
-148 -240 0
-152 -236 0
-147 -243 0
-151 -241 0
-149 -238 0
-150 -238 0
-148 -269 0
-153 -270 0
-153 -265 0
-150 -268 0
-146 -266 0
-151 -270 0
-150 -264 0
-151 -266 0
-162 -198 0
-157 -194 0
-160 -196 0
-161 -195 0
-158 -193 0
-156 -193 0
-154 -197 0
-159 -194 0
-158 -228 0
-156 -233 0
-159 -230 0
-159 -229 0
-161 -232 0
-155 -227 0
-154 -232 0
-162 -231 0
-156 -264 0
-159 -270 0
-160 -270 0
-160 -268 0
-161 -266 0
-160 -267 0
-155 -268 0
-160 -263 0
-165 -190 0
-166 -194 0
-165 -192 0
-167 -191 0
-171 -192 0
-166 -195 0
-165 -196 0
-170 -193 0
-171 -224 0
-164 -221 0
-164 -219 0
-170 -222 0
-167 -223 0
-165 -222 0
-165 -221 0
-165 -225 0
-166 -230 0
-165 -227 0
-163 -232 0
-169 -228 0
-167 -233 0
-170 -234 0
-164 -230 0
-166 -234 0
-163 -256 0
-165 -260 0
-168 -254 0
-171 -260 0
-170 -255 0
-166 -256 0
-169 -259 0
-167 -261 0
-173 -239 0
-172 -240 0
-174 -239 0
-172 -238 0
-176 -237 0
-178 -239 0
-180 -239 0
-179 -237 0
-181 -229 0
-183 -226 0
-189 -226 0
-189 -230 0
-188 -230 0
-183 -231 0
-187 -234 0
-181 -230 0
-182 -241 0
-189 -241 0
-186 -242 0
-183 -238 0
-189 -237 0
-181 -242 0
-189 -242 0
-185 -238 0
-184 -269 0
-183 -264 0
-183 -270 0
-185 -266 0
-186 -266 0
-188 -269 0
-187 -264 0
-182 -264 0
-190 -249 0
-191 -246 0
-195 -250 0
-197 -247 0
-191 -252 0
-191 -249 0
-197 -244 0
-194 -247 0
-195 -255 0
-190 -258 0
-191 -261 0
-196 -254 0
-198 -261 0
-196 -253 0
-190 -257 0
-193 -259 0
-197 -268 0
-198 -269 0
-196 -270 0
-190 -265 0
-192 -265 0
-196 -263 0
-197 -266 0
-190 -267 0
-199 -208 0
-203 -209 0
-203 -208 0
-201 -214 0
-205 -212 0
-207 -214 0
-202 -215 0
-199 -212 0
-201 -233 0
-205 -230 0
-205 -229 0
-199 -227 0
-204 -231 0
-200 -233 0
-203 -226 0
-202 -231 0
-202 -264 0
-204 -267 0
-201 -263 0
-199 -265 0
-200 -263 0
-207 -270 0
-204 -266 0
-202 -262 0
-212 -225 0
-216 -222 0
-211 -217 0
-209 -225 0
-213 -225 0
-210 -225 0
-213 -224 0
-210 -219 0
-211 -238 0
-214 -237 0
-216 -240 0
-214 -236 0
-215 -237 0
-209 -241 0
-213 -239 0
-214 -240 0
-216 -248 0
-213 -250 0
-209 -249 0
-209 -251 0
-210 -252 0
-216 -249 0
-208 -248 0
-211 -249 0
-213 -253 0
-208 -256 0
-211 -258 0
-208 -259 0
-211 -254 0
-214 -254 0
-209 -257 0
-215 -257 0
-214 -265 0
-213 -262 0
-214 -263 0
-213 -270 0
-210 -262 0
-213 -265 0
-209 -269 0
-216 -264 0
-224 -253 0
-224 -260 0
-223 -254 0
-219 -258 0
-224 -257 0
-224 -255 0
-219 -255 0
-224 -256 0
